NAME : X-n801-k40
COMMENT : "Generated by Uchoa, Pecin, Pessoa, Poggi, Subramanian, and Vidal (2013)"
TYPE : CVRP
DIMENSION : 801
EDGE_WEIGHT_TYPE : EUC_2D
CAPACITY : 20
NODE_COORD_SECTION
1 0 0
2 674 825
3 549 534
4 43 315
5 542 420
6 45 580
7 180 450
8 369 618
9 287 721
10 36 426
11 680 338
12 42 81
13 942 119
14 247 68
15 432 549
16 514 857
17 554 976
18 103 728
19 271 73
20 310 859
21 874 538
22 358 642
23 989 42
24 538 271
25 854 443
26 596 563
27 827 228
28 380 40
29 152 224
30 726 258
31 981 544
32 600 381
33 629 799
34 488 12
35 100 542
36 37 272
37 847 980
38 949 124
39 787 917
40 111 958
41 571 968
42 2 409
43 95 2
44 318 447
45 271 856
46 873 697
47 34 274
48 733 17
49 620 125
50 611 334
51 66 848
52 507 711
53 993 152
54 596 683
55 605 980
56 372 833
57 968 699
58 36 620
59 518 566
60 138 457
61 828 421
62 467 39
63 626 645
64 192 923
65 56 363
66 252 349
67 202 896
68 999 331
69 843 462
70 83 975
71 475 135
72 601 55
73 578 43
74 480 854
75 124 825
76 121 228
77 355 326
78 291 944
79 784 563
80 260 251
81 472 918
82 193 715
83 539 592
84 794 290
85 930 315
86 190 654
87 429 292
88 79 779
89 931 409
90 114 765
91 948 685
92 550 915
93 383 979
94 127 64
95 541 935
96 218 159
97 396 194
98 216 85
99 106 843
100 174 744
101 782 117
102 699 379
103 497 355
104 87 161
105 558 199
106 721 10
107 18 53
108 704 674
109 443 783
110 755 58
111 928 666
112 347 805
113 360 600
114 101 119
115 938 556
116 422 848
117 934 275
118 391 807
119 712 230
120 908 359
121 992 823
122 80 246
123 367 837
124 865 661
125 67 146
126 956 582
127 977 663
128 930 343
129 896 542
130 631 472
131 62 636
132 817 759
133 914 195
134 46 591
135 102 825
136 822 527
137 763 684
138 975 128
139 26 941
140 314 34
141 787 474
142 512 291
143 718 832
144 244 931
145 534 425
146 585 799
147 513 990
148 641 633
149 254 283
150 448 389
151 702 44
152 109 823
153 402 190
154 184 314
155 26 270
156 333 949
157 132 174
158 203 842
159 182 78
160 575 723
161 807 656
162 745 757
163 320 523
164 175 626
165 488 947
166 376 858
167 540 797
168 52 401
169 441 748
170 491 459
171 398 734
172 202 560
173 636 652
174 813 892
175 403 311
176 201 878
177 245 641
178 894 2
179 515 142
180 701 895
181 143 590
182 612 652
183 650 986
184 932 420
185 410 762
186 676 219
187 174 236
188 204 25
189 828 312
190 120 96
191 409 434
192 405 549
193 379 787
194 810 191
195 129 755
196 499 596
197 754 620
198 937 430
199 61 519
200 29 34
201 843 640
202 520 251
203 385 685
204 619 501
205 239 564
206 908 111
207 234 353
208 467 896
209 742 499
210 277 981
211 194 265
212 851 885
213 850 444
214 131 847
215 806 302
216 627 401
217 267 788
218 805 211
219 61 985
220 729 142
221 402 812
222 956 593
223 907 977
224 670 71
225 863 184
226 74 25
227 741 581
228 38 919
229 963 467
230 979 558
231 916 241
232 4 676
233 217 612
234 311 756
235 235 42
236 815 106
237 848 461
238 46 198
239 460 210
240 293 234
241 274 248
242 986 983
243 800 608
244 342 852
245 623 95
246 258 221
247 420 244
248 444 16
249 223 518
250 821 540
251 939 766
252 157 549
253 106 921
254 961 583
255 925 959
256 619 540
257 507 97
258 790 509
259 404 252
260 44 843
261 363 737
262 752 492
263 352 216
264 226 577
265 817 913
266 115 221
267 200 58
268 38 628
269 711 595
270 479 404
271 332 129
272 929 145
273 93 139
274 269 260
275 583 421
276 424 47
277 715 796
278 240 26
279 743 62
280 633 515
281 528 202
282 976 456
283 54 828
284 739 497
285 191 890
286 384 316
287 713 629
288 502 205
289 563 779
290 205 892
291 368 18
292 766 621
293 207 679
294 506 481
295 622 691
296 946 987
297 890 793
298 182 900
299 530 981
300 540 313
301 78 213
302 456 978
303 99 363
304 623 878
305 448 422
306 379 61
307 792 953
308 347 720
309 373 793
310 330 512
311 22 7
312 445 147
313 431 90
314 517 208
315 659 423
316 724 233
317 906 970
318 476 43
319 522 237
320 571 317
321 280 476
322 571 424
323 885 129
324 452 500
325 743 544
326 493 777
327 976 918
328 412 154
329 686 502
330 762 39
331 473 60
332 570 414
333 201 567
334 226 169
335 12 159
336 627 681
337 589 346
338 563 637
339 678 455
340 361 119
341 849 338
342 776 929
343 511 327
344 128 163
345 183 433
346 697 48
347 3 800
348 361 10
349 499 410
350 601 34
351 73 124
352 908 439
353 136 356
354 203 835
355 355 733
356 221 582
357 961 627
358 661 144
359 875 331
360 455 290
361 104 892
362 281 548
363 378 180
364 329 906
365 41 229
366 320 770
367 191 805
368 767 162
369 72 237
370 491 176
371 716 497
372 391 682
373 828 526
374 457 274
375 934 814
376 33 480
377 765 225
378 337 209
379 903 78
380 223 461
381 668 475
382 201 270
383 261 879
384 697 920
385 152 937
386 573 385
387 724 568
388 892 43
389 159 283
390 931 623
391 585 768
392 449 408
393 459 705
394 203 692
395 215 862
396 712 480
397 150 407
398 274 443
399 565 501
400 230 119
401 157 111
402 481 368
403 662 102
404 252 72
405 737 554
406 111 96
407 110 348
408 232 480
409 970 989
410 910 901
411 598 686
412 327 371
413 267 682
414 571 194
415 383 829
416 897 166
417 869 417
418 244 30
419 809 255
420 4 177
421 340 996
422 32 602
423 793 712
424 916 104
425 77 731
426 489 744
427 330 707
428 600 540
429 803 954
430 123 430
431 998 17
432 229 468
433 67 511
434 897 279
435 448 185
436 680 762
437 752 263
438 724 44
439 911 15
440 29 685
441 563 589
442 972 125
443 696 82
444 61 393
445 536 881
446 963 57
447 690 225
448 759 430
449 535 47
450 468 19
451 860 45
452 810 233
453 753 13
454 217 331
455 747 415
456 106 630
457 207 218
458 389 952
459 974 969
460 242 335
461 249 118
462 118 982
463 741 606
464 15 459
465 52 684
466 990 159
467 325 995
468 926 999
469 123 903
470 544 369
471 582 67
472 676 344
473 793 276
474 774 131
475 447 520
476 675 775
477 723 323
478 624 108
479 431 317
480 531 961
481 401 76
482 493 604
483 125 188
484 558 463
485 646 587
486 736 62
487 698 127
488 270 234
489 100 418
490 154 568
491 396 895
492 890 116
493 740 150
494 509 345
495 42 516
496 837 341
497 363 882
498 9 260
499 543 783
500 238 33
501 101 723
502 823 319
503 376 753
504 421 707
505 912 300
506 564 169
507 101 247
508 418 767
509 79 258
510 806 598
511 857 357
512 465 7
513 718 756
514 571 33
515 858 934
516 498 115
517 270 966
518 837 44
519 897 98
520 659 168
521 6 579
522 33 841
523 846 736
524 792 131
525 524 301
526 545 773
527 154 997
528 945 365
529 248 354
530 206 831
531 351 798
532 868 116
533 936 974
534 809 145
535 542 321
536 515 23
537 167 912
538 594 490
539 910 515
540 542 619
541 855 937
542 758 776
543 217 592
544 810 821
545 735 333
546 950 557
547 305 532
548 880 441
549 877 400
550 771 528
551 592 578
552 520 681
553 175 953
554 276 21
555 574 742
556 199 633
557 852 821
558 476 514
559 326 299
560 589 781
561 960 350
562 830 120
563 0 291
564 65 496
565 877 905
566 753 97
567 329 24
568 207 545
569 811 359
570 113 342
571 120 573
572 295 581
573 298 609
574 731 893
575 763 273
576 816 651
577 702 61
578 880 426
579 719 232
580 955 689
581 715 141
582 788 762
583 34 817
584 105 22
585 857 788
586 134 359
587 831 163
588 361 870
589 975 958
590 553 819
591 807 673
592 19 838
593 746 121
594 130 380
595 741 511
596 80 424
597 173 767
598 906 426
599 990 111
600 748 520
601 92 895
602 371 978
603 986 670
604 929 905
605 661 524
606 974 197
607 742 652
608 732 747
609 870 188
610 612 890
611 348 284
612 973 109
613 34 437
614 137 997
615 474 63
616 665 444
617 300 335
618 856 104
619 866 249
620 528 91
621 140 964
622 25 937
623 848 367
624 486 786
625 857 918
626 357 860
627 823 709
628 162 150
629 77 809
630 516 380
631 772 832
632 387 199
633 261 767
634 619 645
635 754 57
636 692 838
637 193 932
638 738 941
639 406 976
640 811 360
641 487 965
642 396 197
643 444 940
644 182 954
645 85 539
646 70 483
647 161 570
648 447 194
649 757 845
650 692 506
651 930 251
652 950 549
653 601 86
654 143 117
655 698 634
656 238 877
657 543 987
658 761 809
659 494 134
660 562 925
661 838 282
662 834 210
663 926 436
664 375 833
665 568 225
666 106 594
667 675 986
668 835 632
669 144 83
670 272 373
671 4 496
672 299 740
673 805 641
674 482 600
675 255 448
676 834 470
677 117 696
678 837 469
679 345 585
680 703 523
681 476 565
682 893 816
683 271 417
684 877 492
685 605 578
686 156 613
687 607 721
688 527 358
689 54 581
690 591 478
691 7 37
692 529 997
693 705 436
694 110 166
695 702 173
696 962 671
697 262 521
698 82 75
699 1000 703
700 607 536
701 764 227
702 827 744
703 788 463
704 450 136
705 72 466
706 119 348
707 32 58
708 178 910
709 381 159
710 686 207
711 276 358
712 683 682
713 708 748
714 707 282
715 141 999
716 558 169
717 403 688
718 315 671
719 827 880
720 601 481
721 641 950
722 98 116
723 611 668
724 313 616
725 928 521
726 595 498
727 350 295
728 397 963
729 595 904
730 798 339
731 978 460
732 260 800
733 302 615
734 653 302
735 5 126
736 512 800
737 541 691
738 559 690
739 24 21
740 465 522
741 125 178
742 868 947
743 204 141
744 636 919
745 703 643
746 385 155
747 790 245
748 244 833
749 244 666
750 870 543
751 606 359
752 712 497
753 553 343
754 532 975
755 555 276
756 165 33
757 757 787
758 537 457
759 120 51
760 932 958
761 815 623
762 502 636
763 859 508
764 42 675
765 10 496
766 999 300
767 908 736
768 735 980
769 459 564
770 49 877
771 483 587
772 945 557
773 602 2
774 633 936
775 379 182
776 814 486
777 710 500
778 178 687
779 466 406
780 186 732
781 381 762
782 69 478
783 193 411
784 109 653
785 40 10
786 142 303
787 90 111
788 334 499
789 443 482
790 187 290
791 262 691
792 814 908
793 171 930
794 446 214
795 893 96
796 205 410
797 137 120
798 115 986
799 745 541
800 368 926
801 77 338
PICKUP_AND_DELIVERY_SECTION
1 0 0 1000000000 0 0 0
2 0 0 1000000000 0 0 1
3 0 0 1000000000 0 1 0
4 0 0 1000000000 0 0 1
5 0 0 1000000000 0 1 0
6 0 0 1000000000 0 0 1
7 0 0 1000000000 0 1 0
8 0 0 1000000000 0 0 1
9 0 0 1000000000 0 1 0
10 0 0 1000000000 0 0 1
11 0 0 1000000000 0 1 0
12 0 0 1000000000 0 0 1
13 0 0 1000000000 0 1 0
14 0 0 1000000000 0 0 1
15 0 0 1000000000 0 1 0
16 0 0 1000000000 0 0 1
17 0 0 1000000000 0 1 0
18 0 0 1000000000 0 0 1
19 0 0 1000000000 0 1 0
20 0 0 1000000000 0 0 1
21 0 0 1000000000 0 1 0
22 0 0 1000000000 0 0 1
23 0 0 1000000000 0 1 0
24 0 0 1000000000 0 0 1
25 0 0 1000000000 0 1 0
26 0 0 1000000000 0 0 1
27 0 0 1000000000 0 1 0
28 0 0 1000000000 0 0 1
29 0 0 1000000000 0 1 0
30 0 0 1000000000 0 0 1
31 0 0 1000000000 0 1 0
32 0 0 1000000000 0 0 1
33 0 0 1000000000 0 1 0
34 0 0 1000000000 0 0 1
35 0 0 1000000000 0 1 0
36 0 0 1000000000 0 0 1
37 0 0 1000000000 0 1 0
38 0 0 1000000000 0 0 1
39 0 0 1000000000 0 1 0
40 0 0 1000000000 0 0 1
41 0 0 1000000000 0 1 0
42 0 0 1000000000 0 0 1
43 0 0 1000000000 0 1 0
44 0 0 1000000000 0 0 1
45 0 0 1000000000 0 1 0
46 0 0 1000000000 0 0 1
47 0 0 1000000000 0 1 0
48 0 0 1000000000 0 0 1
49 0 0 1000000000 0 1 0
50 0 0 1000000000 0 0 1
51 0 0 1000000000 0 1 0
52 0 0 1000000000 0 0 1
53 0 0 1000000000 0 1 0
54 0 0 1000000000 0 0 1
55 0 0 1000000000 0 1 0
56 0 0 1000000000 0 0 1
57 0 0 1000000000 0 1 0
58 0 0 1000000000 0 0 1
59 0 0 1000000000 0 1 0
60 0 0 1000000000 0 0 1
61 0 0 1000000000 0 1 0
62 0 0 1000000000 0 0 1
63 0 0 1000000000 0 1 0
64 0 0 1000000000 0 0 1
65 0 0 1000000000 0 1 0
66 0 0 1000000000 0 0 1
67 0 0 1000000000 0 1 0
68 0 0 1000000000 0 0 1
69 0 0 1000000000 0 1 0
70 0 0 1000000000 0 0 1
71 0 0 1000000000 0 1 0
72 0 0 1000000000 0 0 1
73 0 0 1000000000 0 1 0
74 0 0 1000000000 0 0 1
75 0 0 1000000000 0 1 0
76 0 0 1000000000 0 0 1
77 0 0 1000000000 0 1 0
78 0 0 1000000000 0 0 1
79 0 0 1000000000 0 1 0
80 0 0 1000000000 0 0 1
81 0 0 1000000000 0 1 0
82 0 0 1000000000 0 0 1
83 0 0 1000000000 0 1 0
84 0 0 1000000000 0 0 1
85 0 0 1000000000 0 1 0
86 0 0 1000000000 0 0 1
87 0 0 1000000000 0 1 0
88 0 0 1000000000 0 0 1
89 0 0 1000000000 0 1 0
90 0 0 1000000000 0 0 1
91 0 0 1000000000 0 1 0
92 0 0 1000000000 0 0 1
93 0 0 1000000000 0 1 0
94 0 0 1000000000 0 0 1
95 0 0 1000000000 0 1 0
96 0 0 1000000000 0 0 1
97 0 0 1000000000 0 1 0
98 0 0 1000000000 0 0 1
99 0 0 1000000000 0 1 0
100 0 0 1000000000 0 0 1
101 0 0 1000000000 0 1 0
102 0 0 1000000000 0 0 1
103 0 0 1000000000 0 1 0
104 0 0 1000000000 0 0 1
105 0 0 1000000000 0 1 0
106 0 0 1000000000 0 0 1
107 0 0 1000000000 0 1 0
108 0 0 1000000000 0 0 1
109 0 0 1000000000 0 1 0
110 0 0 1000000000 0 0 1
111 0 0 1000000000 0 1 0
112 0 0 1000000000 0 0 1
113 0 0 1000000000 0 1 0
114 0 0 1000000000 0 0 1
115 0 0 1000000000 0 1 0
116 0 0 1000000000 0 0 1
117 0 0 1000000000 0 1 0
118 0 0 1000000000 0 0 1
119 0 0 1000000000 0 1 0
120 0 0 1000000000 0 0 1
121 0 0 1000000000 0 1 0
122 0 0 1000000000 0 0 1
123 0 0 1000000000 0 1 0
124 0 0 1000000000 0 0 1
125 0 0 1000000000 0 1 0
126 0 0 1000000000 0 0 1
127 0 0 1000000000 0 1 0
128 0 0 1000000000 0 0 1
129 0 0 1000000000 0 1 0
130 0 0 1000000000 0 0 1
131 0 0 1000000000 0 1 0
132 0 0 1000000000 0 0 1
133 0 0 1000000000 0 1 0
134 0 0 1000000000 0 0 1
135 0 0 1000000000 0 1 0
136 0 0 1000000000 0 0 1
137 0 0 1000000000 0 1 0
138 0 0 1000000000 0 0 1
139 0 0 1000000000 0 1 0
140 0 0 1000000000 0 0 1
141 0 0 1000000000 0 1 0
142 0 0 1000000000 0 0 1
143 0 0 1000000000 0 1 0
144 0 0 1000000000 0 0 1
145 0 0 1000000000 0 1 0
146 0 0 1000000000 0 0 1
147 0 0 1000000000 0 1 0
148 0 0 1000000000 0 0 1
149 0 0 1000000000 0 1 0
150 0 0 1000000000 0 0 1
151 0 0 1000000000 0 1 0
152 0 0 1000000000 0 0 1
153 0 0 1000000000 0 1 0
154 0 0 1000000000 0 0 1
155 0 0 1000000000 0 1 0
156 0 0 1000000000 0 0 1
157 0 0 1000000000 0 1 0
158 0 0 1000000000 0 0 1
159 0 0 1000000000 0 1 0
160 0 0 1000000000 0 0 1
161 0 0 1000000000 0 1 0
162 0 0 1000000000 0 0 1
163 0 0 1000000000 0 1 0
164 0 0 1000000000 0 0 1
165 0 0 1000000000 0 1 0
166 0 0 1000000000 0 0 1
167 0 0 1000000000 0 1 0
168 0 0 1000000000 0 0 1
169 0 0 1000000000 0 1 0
170 0 0 1000000000 0 0 1
171 0 0 1000000000 0 1 0
172 0 0 1000000000 0 0 1
173 0 0 1000000000 0 1 0
174 0 0 1000000000 0 0 1
175 0 0 1000000000 0 1 0
176 0 0 1000000000 0 0 1
177 0 0 1000000000 0 1 0
178 0 0 1000000000 0 0 1
179 0 0 1000000000 0 1 0
180 0 0 1000000000 0 0 1
181 0 0 1000000000 0 1 0
182 0 0 1000000000 0 0 1
183 0 0 1000000000 0 1 0
184 0 0 1000000000 0 0 1
185 0 0 1000000000 0 1 0
186 0 0 1000000000 0 0 1
187 0 0 1000000000 0 1 0
188 0 0 1000000000 0 0 1
189 0 0 1000000000 0 1 0
190 0 0 1000000000 0 0 1
191 0 0 1000000000 0 1 0
192 0 0 1000000000 0 0 1
193 0 0 1000000000 0 1 0
194 0 0 1000000000 0 0 1
195 0 0 1000000000 0 1 0
196 0 0 1000000000 0 0 1
197 0 0 1000000000 0 1 0
198 0 0 1000000000 0 0 1
199 0 0 1000000000 0 1 0
200 0 0 1000000000 0 0 1
201 0 0 1000000000 0 1 0
202 0 0 1000000000 0 0 1
203 0 0 1000000000 0 1 0
204 0 0 1000000000 0 0 1
205 0 0 1000000000 0 1 0
206 0 0 1000000000 0 0 1
207 0 0 1000000000 0 1 0
208 0 0 1000000000 0 0 1
209 0 0 1000000000 0 1 0
210 0 0 1000000000 0 0 1
211 0 0 1000000000 0 1 0
212 0 0 1000000000 0 0 1
213 0 0 1000000000 0 1 0
214 0 0 1000000000 0 0 1
215 0 0 1000000000 0 1 0
216 0 0 1000000000 0 0 1
217 0 0 1000000000 0 1 0
218 0 0 1000000000 0 0 1
219 0 0 1000000000 0 1 0
220 0 0 1000000000 0 0 1
221 0 0 1000000000 0 1 0
222 0 0 1000000000 0 0 1
223 0 0 1000000000 0 1 0
224 0 0 1000000000 0 0 1
225 0 0 1000000000 0 1 0
226 0 0 1000000000 0 0 1
227 0 0 1000000000 0 1 0
228 0 0 1000000000 0 0 1
229 0 0 1000000000 0 1 0
230 0 0 1000000000 0 0 1
231 0 0 1000000000 0 1 0
232 0 0 1000000000 0 0 1
233 0 0 1000000000 0 1 0
234 0 0 1000000000 0 0 1
235 0 0 1000000000 0 1 0
236 0 0 1000000000 0 0 1
237 0 0 1000000000 0 1 0
238 0 0 1000000000 0 0 1
239 0 0 1000000000 0 1 0
240 0 0 1000000000 0 0 1
241 0 0 1000000000 0 1 0
242 0 0 1000000000 0 0 1
243 0 0 1000000000 0 1 0
244 0 0 1000000000 0 0 1
245 0 0 1000000000 0 1 0
246 0 0 1000000000 0 0 1
247 0 0 1000000000 0 1 0
248 0 0 1000000000 0 0 1
249 0 0 1000000000 0 1 0
250 0 0 1000000000 0 0 1
251 0 0 1000000000 0 1 0
252 0 0 1000000000 0 0 1
253 0 0 1000000000 0 1 0
254 0 0 1000000000 0 0 1
255 0 0 1000000000 0 1 0
256 0 0 1000000000 0 0 1
257 0 0 1000000000 0 1 0
258 0 0 1000000000 0 0 1
259 0 0 1000000000 0 1 0
260 0 0 1000000000 0 0 1
261 0 0 1000000000 0 1 0
262 0 0 1000000000 0 0 1
263 0 0 1000000000 0 1 0
264 0 0 1000000000 0 0 1
265 0 0 1000000000 0 1 0
266 0 0 1000000000 0 0 1
267 0 0 1000000000 0 1 0
268 0 0 1000000000 0 0 1
269 0 0 1000000000 0 1 0
270 0 0 1000000000 0 0 1
271 0 0 1000000000 0 1 0
272 0 0 1000000000 0 0 1
273 0 0 1000000000 0 1 0
274 0 0 1000000000 0 0 1
275 0 0 1000000000 0 1 0
276 0 0 1000000000 0 0 1
277 0 0 1000000000 0 1 0
278 0 0 1000000000 0 0 1
279 0 0 1000000000 0 1 0
280 0 0 1000000000 0 0 1
281 0 0 1000000000 0 1 0
282 0 0 1000000000 0 0 1
283 0 0 1000000000 0 1 0
284 0 0 1000000000 0 0 1
285 0 0 1000000000 0 1 0
286 0 0 1000000000 0 0 1
287 0 0 1000000000 0 1 0
288 0 0 1000000000 0 0 1
289 0 0 1000000000 0 1 0
290 0 0 1000000000 0 0 1
291 0 0 1000000000 0 1 0
292 0 0 1000000000 0 0 1
293 0 0 1000000000 0 1 0
294 0 0 1000000000 0 0 1
295 0 0 1000000000 0 1 0
296 0 0 1000000000 0 0 1
297 0 0 1000000000 0 1 0
298 0 0 1000000000 0 0 1
299 0 0 1000000000 0 1 0
300 0 0 1000000000 0 0 1
301 0 0 1000000000 0 1 0
302 0 0 1000000000 0 0 1
303 0 0 1000000000 0 1 0
304 0 0 1000000000 0 0 1
305 0 0 1000000000 0 1 0
306 0 0 1000000000 0 0 1
307 0 0 1000000000 0 1 0
308 0 0 1000000000 0 0 1
309 0 0 1000000000 0 1 0
310 0 0 1000000000 0 0 1
311 0 0 1000000000 0 1 0
312 0 0 1000000000 0 0 1
313 0 0 1000000000 0 1 0
314 0 0 1000000000 0 0 1
315 0 0 1000000000 0 1 0
316 0 0 1000000000 0 0 1
317 0 0 1000000000 0 1 0
318 0 0 1000000000 0 0 1
319 0 0 1000000000 0 1 0
320 0 0 1000000000 0 0 1
321 0 0 1000000000 0 1 0
322 0 0 1000000000 0 0 1
323 0 0 1000000000 0 1 0
324 0 0 1000000000 0 0 1
325 0 0 1000000000 0 1 0
326 0 0 1000000000 0 0 1
327 0 0 1000000000 0 1 0
328 0 0 1000000000 0 0 1
329 0 0 1000000000 0 1 0
330 0 0 1000000000 0 0 1
331 0 0 1000000000 0 1 0
332 0 0 1000000000 0 0 1
333 0 0 1000000000 0 1 0
334 0 0 1000000000 0 0 1
335 0 0 1000000000 0 1 0
336 0 0 1000000000 0 0 1
337 0 0 1000000000 0 1 0
338 0 0 1000000000 0 0 1
339 0 0 1000000000 0 1 0
340 0 0 1000000000 0 0 1
341 0 0 1000000000 0 1 0
342 0 0 1000000000 0 0 1
343 0 0 1000000000 0 1 0
344 0 0 1000000000 0 0 1
345 0 0 1000000000 0 1 0
346 0 0 1000000000 0 0 1
347 0 0 1000000000 0 1 0
348 0 0 1000000000 0 0 1
349 0 0 1000000000 0 1 0
350 0 0 1000000000 0 0 1
351 0 0 1000000000 0 1 0
352 0 0 1000000000 0 0 1
353 0 0 1000000000 0 1 0
354 0 0 1000000000 0 0 1
355 0 0 1000000000 0 1 0
356 0 0 1000000000 0 0 1
357 0 0 1000000000 0 1 0
358 0 0 1000000000 0 0 1
359 0 0 1000000000 0 1 0
360 0 0 1000000000 0 0 1
361 0 0 1000000000 0 1 0
362 0 0 1000000000 0 0 1
363 0 0 1000000000 0 1 0
364 0 0 1000000000 0 0 1
365 0 0 1000000000 0 1 0
366 0 0 1000000000 0 0 1
367 0 0 1000000000 0 1 0
368 0 0 1000000000 0 0 1
369 0 0 1000000000 0 1 0
370 0 0 1000000000 0 0 1
371 0 0 1000000000 0 1 0
372 0 0 1000000000 0 0 1
373 0 0 1000000000 0 1 0
374 0 0 1000000000 0 0 1
375 0 0 1000000000 0 1 0
376 0 0 1000000000 0 0 1
377 0 0 1000000000 0 1 0
378 0 0 1000000000 0 0 1
379 0 0 1000000000 0 1 0
380 0 0 1000000000 0 0 1
381 0 0 1000000000 0 1 0
382 0 0 1000000000 0 0 1
383 0 0 1000000000 0 1 0
384 0 0 1000000000 0 0 1
385 0 0 1000000000 0 1 0
386 0 0 1000000000 0 0 1
387 0 0 1000000000 0 1 0
388 0 0 1000000000 0 0 1
389 0 0 1000000000 0 1 0
390 0 0 1000000000 0 0 1
391 0 0 1000000000 0 1 0
392 0 0 1000000000 0 0 1
393 0 0 1000000000 0 1 0
394 0 0 1000000000 0 0 1
395 0 0 1000000000 0 1 0
396 0 0 1000000000 0 0 1
397 0 0 1000000000 0 1 0
398 0 0 1000000000 0 0 1
399 0 0 1000000000 0 1 0
400 0 0 1000000000 0 0 1
401 0 0 1000000000 0 1 0
402 0 0 1000000000 0 0 1
403 0 0 1000000000 0 1 0
404 0 0 1000000000 0 0 1
405 0 0 1000000000 0 1 0
406 0 0 1000000000 0 0 1
407 0 0 1000000000 0 1 0
408 0 0 1000000000 0 0 1
409 0 0 1000000000 0 1 0
410 0 0 1000000000 0 0 1
411 0 0 1000000000 0 1 0
412 0 0 1000000000 0 0 1
413 0 0 1000000000 0 1 0
414 0 0 1000000000 0 0 1
415 0 0 1000000000 0 1 0
416 0 0 1000000000 0 0 1
417 0 0 1000000000 0 1 0
418 0 0 1000000000 0 0 1
419 0 0 1000000000 0 1 0
420 0 0 1000000000 0 0 1
421 0 0 1000000000 0 1 0
422 0 0 1000000000 0 0 1
423 0 0 1000000000 0 1 0
424 0 0 1000000000 0 0 1
425 0 0 1000000000 0 1 0
426 0 0 1000000000 0 0 1
427 0 0 1000000000 0 1 0
428 0 0 1000000000 0 0 1
429 0 0 1000000000 0 1 0
430 0 0 1000000000 0 0 1
431 0 0 1000000000 0 1 0
432 0 0 1000000000 0 0 1
433 0 0 1000000000 0 1 0
434 0 0 1000000000 0 0 1
435 0 0 1000000000 0 1 0
436 0 0 1000000000 0 0 1
437 0 0 1000000000 0 1 0
438 0 0 1000000000 0 0 1
439 0 0 1000000000 0 1 0
440 0 0 1000000000 0 0 1
441 0 0 1000000000 0 1 0
442 0 0 1000000000 0 0 1
443 0 0 1000000000 0 1 0
444 0 0 1000000000 0 0 1
445 0 0 1000000000 0 1 0
446 0 0 1000000000 0 0 1
447 0 0 1000000000 0 1 0
448 0 0 1000000000 0 0 1
449 0 0 1000000000 0 1 0
450 0 0 1000000000 0 0 1
451 0 0 1000000000 0 1 0
452 0 0 1000000000 0 0 1
453 0 0 1000000000 0 1 0
454 0 0 1000000000 0 0 1
455 0 0 1000000000 0 1 0
456 0 0 1000000000 0 0 1
457 0 0 1000000000 0 1 0
458 0 0 1000000000 0 0 1
459 0 0 1000000000 0 1 0
460 0 0 1000000000 0 0 1
461 0 0 1000000000 0 1 0
462 0 0 1000000000 0 0 1
463 0 0 1000000000 0 1 0
464 0 0 1000000000 0 0 1
465 0 0 1000000000 0 1 0
466 0 0 1000000000 0 0 1
467 0 0 1000000000 0 1 0
468 0 0 1000000000 0 0 1
469 0 0 1000000000 0 1 0
470 0 0 1000000000 0 0 1
471 0 0 1000000000 0 1 0
472 0 0 1000000000 0 0 1
473 0 0 1000000000 0 1 0
474 0 0 1000000000 0 0 1
475 0 0 1000000000 0 1 0
476 0 0 1000000000 0 0 1
477 0 0 1000000000 0 1 0
478 0 0 1000000000 0 0 1
479 0 0 1000000000 0 1 0
480 0 0 1000000000 0 0 1
481 0 0 1000000000 0 1 0
482 0 0 1000000000 0 0 1
483 0 0 1000000000 0 1 0
484 0 0 1000000000 0 0 1
485 0 0 1000000000 0 1 0
486 0 0 1000000000 0 0 1
487 0 0 1000000000 0 1 0
488 0 0 1000000000 0 0 1
489 0 0 1000000000 0 1 0
490 0 0 1000000000 0 0 1
491 0 0 1000000000 0 1 0
492 0 0 1000000000 0 0 1
493 0 0 1000000000 0 1 0
494 0 0 1000000000 0 0 1
495 0 0 1000000000 0 1 0
496 0 0 1000000000 0 0 1
497 0 0 1000000000 0 1 0
498 0 0 1000000000 0 0 1
499 0 0 1000000000 0 1 0
500 0 0 1000000000 0 0 1
501 0 0 1000000000 0 1 0
502 0 0 1000000000 0 0 1
503 0 0 1000000000 0 1 0
504 0 0 1000000000 0 0 1
505 0 0 1000000000 0 1 0
506 0 0 1000000000 0 0 1
507 0 0 1000000000 0 1 0
508 0 0 1000000000 0 0 1
509 0 0 1000000000 0 1 0
510 0 0 1000000000 0 0 1
511 0 0 1000000000 0 1 0
512 0 0 1000000000 0 0 1
513 0 0 1000000000 0 1 0
514 0 0 1000000000 0 0 1
515 0 0 1000000000 0 1 0
516 0 0 1000000000 0 0 1
517 0 0 1000000000 0 1 0
518 0 0 1000000000 0 0 1
519 0 0 1000000000 0 1 0
520 0 0 1000000000 0 0 1
521 0 0 1000000000 0 1 0
522 0 0 1000000000 0 0 1
523 0 0 1000000000 0 1 0
524 0 0 1000000000 0 0 1
525 0 0 1000000000 0 1 0
526 0 0 1000000000 0 0 1
527 0 0 1000000000 0 1 0
528 0 0 1000000000 0 0 1
529 0 0 1000000000 0 1 0
530 0 0 1000000000 0 0 1
531 0 0 1000000000 0 1 0
532 0 0 1000000000 0 0 1
533 0 0 1000000000 0 1 0
534 0 0 1000000000 0 0 1
535 0 0 1000000000 0 1 0
536 0 0 1000000000 0 0 1
537 0 0 1000000000 0 1 0
538 0 0 1000000000 0 0 1
539 0 0 1000000000 0 1 0
540 0 0 1000000000 0 0 1
541 0 0 1000000000 0 1 0
542 0 0 1000000000 0 0 1
543 0 0 1000000000 0 1 0
544 0 0 1000000000 0 0 1
545 0 0 1000000000 0 1 0
546 0 0 1000000000 0 0 1
547 0 0 1000000000 0 1 0
548 0 0 1000000000 0 0 1
549 0 0 1000000000 0 1 0
550 0 0 1000000000 0 0 1
551 0 0 1000000000 0 1 0
552 0 0 1000000000 0 0 1
553 0 0 1000000000 0 1 0
554 0 0 1000000000 0 0 1
555 0 0 1000000000 0 1 0
556 0 0 1000000000 0 0 1
557 0 0 1000000000 0 1 0
558 0 0 1000000000 0 0 1
559 0 0 1000000000 0 1 0
560 0 0 1000000000 0 0 1
561 0 0 1000000000 0 1 0
562 0 0 1000000000 0 0 1
563 0 0 1000000000 0 1 0
564 0 0 1000000000 0 0 1
565 0 0 1000000000 0 1 0
566 0 0 1000000000 0 0 1
567 0 0 1000000000 0 1 0
568 0 0 1000000000 0 0 1
569 0 0 1000000000 0 1 0
570 0 0 1000000000 0 0 1
571 0 0 1000000000 0 1 0
572 0 0 1000000000 0 0 1
573 0 0 1000000000 0 1 0
574 0 0 1000000000 0 0 1
575 0 0 1000000000 0 1 0
576 0 0 1000000000 0 0 1
577 0 0 1000000000 0 1 0
578 0 0 1000000000 0 0 1
579 0 0 1000000000 0 1 0
580 0 0 1000000000 0 0 1
581 0 0 1000000000 0 1 0
582 0 0 1000000000 0 0 1
583 0 0 1000000000 0 1 0
584 0 0 1000000000 0 0 1
585 0 0 1000000000 0 1 0
586 0 0 1000000000 0 0 1
587 0 0 1000000000 0 1 0
588 0 0 1000000000 0 0 1
589 0 0 1000000000 0 1 0
590 0 0 1000000000 0 0 1
591 0 0 1000000000 0 1 0
592 0 0 1000000000 0 0 1
593 0 0 1000000000 0 1 0
594 0 0 1000000000 0 0 1
595 0 0 1000000000 0 1 0
596 0 0 1000000000 0 0 1
597 0 0 1000000000 0 1 0
598 0 0 1000000000 0 0 1
599 0 0 1000000000 0 1 0
600 0 0 1000000000 0 0 1
601 0 0 1000000000 0 1 0
602 0 0 1000000000 0 0 1
603 0 0 1000000000 0 1 0
604 0 0 1000000000 0 0 1
605 0 0 1000000000 0 1 0
606 0 0 1000000000 0 0 1
607 0 0 1000000000 0 1 0
608 0 0 1000000000 0 0 1
609 0 0 1000000000 0 1 0
610 0 0 1000000000 0 0 1
611 0 0 1000000000 0 1 0
612 0 0 1000000000 0 0 1
613 0 0 1000000000 0 1 0
614 0 0 1000000000 0 0 1
615 0 0 1000000000 0 1 0
616 0 0 1000000000 0 0 1
617 0 0 1000000000 0 1 0
618 0 0 1000000000 0 0 1
619 0 0 1000000000 0 1 0
620 0 0 1000000000 0 0 1
621 0 0 1000000000 0 1 0
622 0 0 1000000000 0 0 1
623 0 0 1000000000 0 1 0
624 0 0 1000000000 0 0 1
625 0 0 1000000000 0 1 0
626 0 0 1000000000 0 0 1
627 0 0 1000000000 0 1 0
628 0 0 1000000000 0 0 1
629 0 0 1000000000 0 1 0
630 0 0 1000000000 0 0 1
631 0 0 1000000000 0 1 0
632 0 0 1000000000 0 0 1
633 0 0 1000000000 0 1 0
634 0 0 1000000000 0 0 1
635 0 0 1000000000 0 1 0
636 0 0 1000000000 0 0 1
637 0 0 1000000000 0 1 0
638 0 0 1000000000 0 0 1
639 0 0 1000000000 0 1 0
640 0 0 1000000000 0 0 1
641 0 0 1000000000 0 1 0
642 0 0 1000000000 0 0 1
643 0 0 1000000000 0 1 0
644 0 0 1000000000 0 0 1
645 0 0 1000000000 0 1 0
646 0 0 1000000000 0 0 1
647 0 0 1000000000 0 1 0
648 0 0 1000000000 0 0 1
649 0 0 1000000000 0 1 0
650 0 0 1000000000 0 0 1
651 0 0 1000000000 0 1 0
652 0 0 1000000000 0 0 1
653 0 0 1000000000 0 1 0
654 0 0 1000000000 0 0 1
655 0 0 1000000000 0 1 0
656 0 0 1000000000 0 0 1
657 0 0 1000000000 0 1 0
658 0 0 1000000000 0 0 1
659 0 0 1000000000 0 1 0
660 0 0 1000000000 0 0 1
661 0 0 1000000000 0 1 0
662 0 0 1000000000 0 0 1
663 0 0 1000000000 0 1 0
664 0 0 1000000000 0 0 1
665 0 0 1000000000 0 1 0
666 0 0 1000000000 0 0 1
667 0 0 1000000000 0 1 0
668 0 0 1000000000 0 0 1
669 0 0 1000000000 0 1 0
670 0 0 1000000000 0 0 1
671 0 0 1000000000 0 1 0
672 0 0 1000000000 0 0 1
673 0 0 1000000000 0 1 0
674 0 0 1000000000 0 0 1
675 0 0 1000000000 0 1 0
676 0 0 1000000000 0 0 1
677 0 0 1000000000 0 1 0
678 0 0 1000000000 0 0 1
679 0 0 1000000000 0 1 0
680 0 0 1000000000 0 0 1
681 0 0 1000000000 0 1 0
682 0 0 1000000000 0 0 1
683 0 0 1000000000 0 1 0
684 0 0 1000000000 0 0 1
685 0 0 1000000000 0 1 0
686 0 0 1000000000 0 0 1
687 0 0 1000000000 0 1 0
688 0 0 1000000000 0 0 1
689 0 0 1000000000 0 1 0
690 0 0 1000000000 0 0 1
691 0 0 1000000000 0 1 0
692 0 0 1000000000 0 0 1
693 0 0 1000000000 0 1 0
694 0 0 1000000000 0 0 1
695 0 0 1000000000 0 1 0
696 0 0 1000000000 0 0 1
697 0 0 1000000000 0 1 0
698 0 0 1000000000 0 0 1
699 0 0 1000000000 0 1 0
700 0 0 1000000000 0 0 1
701 0 0 1000000000 0 1 0
702 0 0 1000000000 0 0 1
703 0 0 1000000000 0 1 0
704 0 0 1000000000 0 0 1
705 0 0 1000000000 0 1 0
706 0 0 1000000000 0 0 1
707 0 0 1000000000 0 1 0
708 0 0 1000000000 0 0 1
709 0 0 1000000000 0 1 0
710 0 0 1000000000 0 0 1
711 0 0 1000000000 0 1 0
712 0 0 1000000000 0 0 1
713 0 0 1000000000 0 1 0
714 0 0 1000000000 0 0 1
715 0 0 1000000000 0 1 0
716 0 0 1000000000 0 0 1
717 0 0 1000000000 0 1 0
718 0 0 1000000000 0 0 1
719 0 0 1000000000 0 1 0
720 0 0 1000000000 0 0 1
721 0 0 1000000000 0 1 0
722 0 0 1000000000 0 0 1
723 0 0 1000000000 0 1 0
724 0 0 1000000000 0 0 1
725 0 0 1000000000 0 1 0
726 0 0 1000000000 0 0 1
727 0 0 1000000000 0 1 0
728 0 0 1000000000 0 0 1
729 0 0 1000000000 0 1 0
730 0 0 1000000000 0 0 1
731 0 0 1000000000 0 1 0
732 0 0 1000000000 0 0 1
733 0 0 1000000000 0 1 0
734 0 0 1000000000 0 0 1
735 0 0 1000000000 0 1 0
736 0 0 1000000000 0 0 1
737 0 0 1000000000 0 1 0
738 0 0 1000000000 0 0 1
739 0 0 1000000000 0 1 0
740 0 0 1000000000 0 0 1
741 0 0 1000000000 0 1 0
742 0 0 1000000000 0 0 1
743 0 0 1000000000 0 1 0
744 0 0 1000000000 0 0 1
745 0 0 1000000000 0 1 0
746 0 0 1000000000 0 0 1
747 0 0 1000000000 0 1 0
748 0 0 1000000000 0 0 1
749 0 0 1000000000 0 1 0
750 0 0 1000000000 0 0 1
751 0 0 1000000000 0 1 0
752 0 0 1000000000 0 0 1
753 0 0 1000000000 0 1 0
754 0 0 1000000000 0 0 1
755 0 0 1000000000 0 1 0
756 0 0 1000000000 0 0 1
757 0 0 1000000000 0 1 0
758 0 0 1000000000 0 0 1
759 0 0 1000000000 0 1 0
760 0 0 1000000000 0 0 1
761 0 0 1000000000 0 1 0
762 0 0 1000000000 0 0 1
763 0 0 1000000000 0 1 0
764 0 0 1000000000 0 0 1
765 0 0 1000000000 0 1 0
766 0 0 1000000000 0 0 1
767 0 0 1000000000 0 1 0
768 0 0 1000000000 0 0 1
769 0 0 1000000000 0 1 0
770 0 0 1000000000 0 0 1
771 0 0 1000000000 0 1 0
772 0 0 1000000000 0 0 1
773 0 0 1000000000 0 1 0
774 0 0 1000000000 0 0 1
775 0 0 1000000000 0 1 0
776 0 0 1000000000 0 0 1
777 0 0 1000000000 0 1 0
778 0 0 1000000000 0 0 1
779 0 0 1000000000 0 1 0
780 0 0 1000000000 0 0 1
781 0 0 1000000000 0 1 0
782 0 0 1000000000 0 0 1
783 0 0 1000000000 0 1 0
784 0 0 1000000000 0 0 1
785 0 0 1000000000 0 1 0
786 0 0 1000000000 0 0 1
787 0 0 1000000000 0 1 0
788 0 0 1000000000 0 0 1
789 0 0 1000000000 0 1 0
790 0 0 1000000000 0 0 1
791 0 0 1000000000 0 1 0
792 0 0 1000000000 0 0 1
793 0 0 1000000000 0 1 0
794 0 0 1000000000 0 0 1
795 0 0 1000000000 0 1 0
796 0 0 1000000000 0 0 1
797 0 0 1000000000 0 1 0
798 0 0 1000000000 0 0 1
799 0 0 1000000000 0 1 0
800 0 0 1000000000 0 0 1
801 0 0 1000000000 0 1 0
